50
    13    56   100     2    33    50    83     2    18    76    98    29    36    39    96    34    48    63    70    35     4    87    54    17    44    63    19    29    99    62    81    85    92    70    94    67    35    86    54    20    32    27    96    56    75    26    98    53    51    30
     5     3     7     1     2     7     9     2     4     1     6     4     9     9     3     7     3     1     6    10     9     3     1     9     8     2    10     4     6     4     5     2     9     7     1     1     9     4     3     6     5     4     2     5     2     9     7     5     5     7
  1105   133   611     0   162   319     0  1367  1390   626   894  1249  1338   992     0   123   237     0   893   259   987  1449  1309     0   637     0  1465     0   117    19     0  1009     8   802   582   957     0   868  1504   367   935     0     0   343     0  1117     0   978   435    61
